CapLotSizing_PM/src/Instancias/NCLSLT/6i18p4m/NBB09.dat
6 18 4
 1
       689
       689
       689
       689
    2
     4
     3
     2
     4
     4
   1.3  16.7   897    23 
  5.0  18.7   785    16 
  1.7  41.0   336    17 
  1.4  33.0   496    20 
  2.5  26.4   533    23 
  3.0  12.0   861    20 
  3.1  29.3   349    25 
  2.7  10.2   513    19 
  4.2  30.9   847    17 
  2.5  36.7   135    25 
  1.2  15.3   385    19 
  4.4  25.7   544    24 
  4.4  24.5   602    18 
  4.7  38.5   887    20 
  2.1  22.5   413    24 
  4.6  29.1   663    25 
  2.0  25.0   330    20 
  1.4  11.7   368    20 
  3.3  11.4   573    19 
  2.9  36.5   255    16 
  4.7  42.5   690    22 
  3.7  17.4   431    18 
  4.3  48.0   673    20 
  2.9  36.7   878    22 
  143   106   145    91     8    49 
   90   106    15   136    78    84 
  138   163    27    74    59   122 
   66   179    55   116   150    42 
  138    54    16    42    27   141 
   76    94    17   154   101    94 
  111    72    10    99   166   156 
  161    55   113    97   108   106 
  171    47   153    45    95    56 
   95    55     3   148   170   165 
  122   104    95    24   112    19 
  170   114    19    57    31     8 
  161     8    50    79   133   121 
   46    99   151   166   137    29 
  169   178    95    36   165    64 
  168   170     4   139   129    77 
   43    19   143    42    18    86 
  115   104    32   125    90    11 
